c [MSE2022] -- begin -- [MSE2022]
0.00/0.01	c
0.00/0.01	c NuWLS based on TT-Open-WBO-Inc:	 an Anytime MaxSAT Solver --- based on Glucose4.1 (core version)
0.00/0.01	c Version:	 MaxSAT Evaluation 2021
0.00/0.01	c Author of NuWLS:	 Yi Chu, Xiang He
0.00/0.01	c Author of TT-Open-WBO-Inc:	 Alexander Nadel
0.00/0.01	c Authors of the baseline solver Open-WBO-Inc:	 Saurabh Joshi, Prateek Kumar, Ruben Martins, Sukrut Rao
0.00/0.01	c WARNING: for repeatability, setting FPU to use double precision
0.00/0.01	c |                                                                                                       |
0.00/0.01	c ========================================[ Problem Statistics ]===========================================
0.00/0.01	c |                                                                                                       |
0.00/0.01	c |  Problem Format:             MaxSAT                                                                   |
0.00/0.01	c |  Problem Type:           Unweighted                                                                   |
0.00/0.01	c |  Number of variables:          1173                                                                   |
0.00/0.01	c |  Number of hard clauses:          0                                                                   |
0.00/0.01	c |  Number of soft clauses:       9589                                                                   |
0.00/0.01	c |  Number of cardinality:           0                                                                   |
0.00/0.01	c |  Number of PB :                   0                                                                   |
0.00/0.01	c |  Parse time:                   0.00 s                                                                 |
0.00/0.01	c |                                                                                                       |
0.00/0.01	c | best-alg-selector overriden target_vars_bump_val to 0, since it hadn't been set by the user |
0.00/0.01	c | best-alg-selector overriden ms_model_per_sec_thr to 2, since it hadn't been set by the user |
0.00/0.01	c | best-alg-selector overriden ms_mutation_classes to 0, since it hadn't been set by the user |
0.00/0.01	c | best-alg-selector overriden ms_chrono to 100, since it hadn't been set by the user |
0.00/0.01	c ==========================================[ Solver Settings ]============================================
0.00/0.01	c |                                                                                                       |
0.00/0.01	c |  Algorithm:                     OBV                                                                   |
0.00/0.01	c |  Cardinality Encoding:       Modulo Totalizer                                                         |
0.00/0.01	c |  Limit number conflicts:       1000                                                                   |
0.00/0.01	c |  Limit number iterations: 2147483647                                                                   |
0.00/0.01	c |  Global limit number conflicts:   F                                                                   |
0.00/0.01	c |                                                                                                       |
0.00/0.01	c Mrs. Beaver incomplete stage
0.00/0.01	o 1866
0.00/0.01	c total_lit_count 20351
0.00/0.01	c before build neighbor
0.00/0.01	c build instime is 0
0.00/0.01	c using neighbor 
0.00/0.01	c build NuWLS instance done!
0.00/0.01	c changing to NuWLS solver!!!
0.00/0.01	c problem weighted = 0
0.00/0.01	o 1866
0.00/0.01	o 1860
0.00/0.01	o 1852
0.00/0.01	o 1845
0.00/0.01	o 1836
0.00/0.01	o 1830
0.00/0.01	o 1824
0.00/0.01	o 1818
0.00/0.01	o 1813
0.00/0.01	o 1808
0.00/0.01	o 1803
0.00/0.01	o 1796
0.00/0.01	o 1791
0.00/0.01	o 1786
0.00/0.01	o 1781
0.00/0.01	o 1775
0.00/0.01	o 1770
0.00/0.01	o 1765
0.00/0.01	o 1761
0.00/0.01	o 1755
0.00/0.01	o 1751
0.00/0.01	o 1747
0.00/0.01	o 1743
0.00/0.01	o 1739
0.00/0.01	o 1735
0.00/0.01	o 1731
0.00/0.01	o 1727
0.00/0.01	o 1723
0.00/0.01	o 1719
0.00/0.01	o 1715
0.00/0.01	o 1711
0.00/0.01	o 1705
0.00/0.01	o 1701
0.00/0.01	o 1697
0.00/0.01	o 1693
0.00/0.01	o 1689
0.00/0.01	o 1684
0.00/0.01	o 1680
0.00/0.01	o 1676
0.00/0.01	o 1672
0.00/0.01	o 1669
0.00/0.01	o 1666
0.00/0.01	o 1663
0.00/0.01	o 1659
0.00/0.01	o 1655
0.00/0.01	o 1652
0.00/0.02	o 1649
0.00/0.02	o 1646
0.00/0.02	o 1643
0.00/0.02	o 1640
0.00/0.02	o 1637
0.00/0.02	o 1634
0.00/0.02	o 1630
0.00/0.02	o 1627
0.00/0.02	o 1624
0.00/0.02	o 1621
0.00/0.02	o 1618
0.00/0.02	o 1614
0.00/0.02	o 1611
0.00/0.02	o 1608
0.00/0.02	o 1605
0.00/0.02	o 1602
0.00/0.02	o 1599
0.00/0.02	o 1596
0.00/0.02	o 1593
0.00/0.02	o 1590
0.00/0.02	o 1587
0.00/0.02	o 1584
0.00/0.02	o 1581
0.00/0.02	o 1578
0.00/0.02	o 1575
0.00/0.02	o 1572
0.00/0.02	o 1569
0.00/0.02	o 1566
0.00/0.02	o 1563
0.00/0.02	o 1560
0.00/0.02	o 1557
0.00/0.02	o 1554
0.00/0.02	o 1551
0.00/0.02	o 1548
0.00/0.02	o 1545
0.00/0.02	o 1542
0.00/0.02	o 1539
0.00/0.02	o 1536
0.00/0.02	o 1533
0.00/0.02	o 1530
0.00/0.02	o 1527
0.00/0.02	o 1525
0.00/0.02	o 1523
0.00/0.02	o 1521
0.00/0.02	o 1519
0.00/0.02	o 1516
0.00/0.02	o 1514
0.00/0.02	o 1512
0.00/0.02	o 1510
0.00/0.02	o 1508
0.00/0.02	o 1506
0.00/0.02	o 1503
0.00/0.02	o 1501
0.00/0.02	o 1499
0.00/0.02	o 1497
0.00/0.02	o 1495
0.00/0.02	o 1492
0.00/0.02	o 1489
0.00/0.02	o 1487
0.00/0.02	o 1485
0.00/0.02	o 1483
0.00/0.02	o 1481
0.00/0.03	o 1479
0.00/0.03	o 1477
0.00/0.03	o 1475
0.00/0.03	o 1473
0.00/0.03	o 1471
0.00/0.03	o 1469
0.00/0.03	o 1467
0.00/0.03	o 1465
0.00/0.03	o 1463
0.00/0.03	o 1461
0.00/0.03	o 1459
0.00/0.03	o 1457
0.00/0.03	o 1455
0.00/0.03	o 1453
0.00/0.03	o 1451
0.00/0.03	o 1449
0.00/0.03	o 1447
0.00/0.03	o 1445
0.00/0.03	o 1443
0.00/0.03	o 1441
0.00/0.03	o 1439
0.00/0.03	o 1437
0.00/0.03	o 1435
0.00/0.03	o 1431
0.00/0.03	o 1429
0.00/0.03	o 1427
0.00/0.03	o 1425
0.00/0.03	o 1423
0.00/0.03	o 1421
0.00/0.03	o 1419
0.00/0.03	o 1417
0.00/0.03	o 1415
0.00/0.03	o 1413
0.00/0.03	o 1411
0.00/0.03	o 1409
0.00/0.03	o 1407
0.00/0.03	o 1405
0.00/0.03	o 1403
0.00/0.03	o 1401
0.00/0.03	o 1399
0.00/0.03	o 1398
0.00/0.03	o 1396
0.00/0.03	o 1393
0.00/0.03	o 1392
0.00/0.03	o 1391
0.00/0.03	o 1390
0.00/0.03	o 1387
0.00/0.03	o 1385
0.00/0.03	o 1383
0.00/0.03	o 1382
0.00/0.03	o 1381
0.00/0.03	o 1379
0.00/0.03	o 1378
0.00/0.03	o 1377
0.00/0.03	o 1376
0.00/0.03	o 1375
0.00/0.03	o 1374
0.00/0.03	o 1372
0.00/0.03	o 1371
0.00/0.03	o 1370
0.00/0.03	o 1369
0.00/0.03	o 1368
0.00/0.03	o 1367
0.00/0.03	o 1366
0.00/0.04	o 1365
0.00/0.04	o 1363
0.00/0.04	o 1361
0.00/0.04	o 1360
0.00/0.04	o 1359
0.00/0.04	o 1358
0.00/0.04	o 1356
0.00/0.04	o 1354
0.00/0.04	o 1353
0.00/0.04	o 1352
0.00/0.04	o 1351
0.00/0.04	o 1350
0.00/0.04	o 1349
0.00/0.04	o 1348
0.00/0.04	o 1347
0.00/0.04	o 1346
0.00/0.04	o 1345
0.00/0.04	o 1344
0.00/0.04	o 1343
0.00/0.04	o 1342
0.00/0.04	o 1341
0.00/0.04	o 1340
0.00/0.04	o 1339
0.00/0.04	o 1338
0.00/0.04	o 1336
0.00/0.04	o 1335
0.00/0.04	o 1334
0.00/0.04	o 1333
0.00/0.04	o 1332
0.00/0.04	o 1331
0.00/0.04	o 1330
0.00/0.04	o 1329
0.00/0.04	o 1328
0.00/0.04	o 1327
0.00/0.04	o 1325
0.00/0.04	o 1324
0.00/0.04	o 1323
0.00/0.04	o 1322
0.00/0.04	o 1321
0.00/0.04	o 1320
0.00/0.04	o 1319
0.00/0.04	o 1318
0.00/0.04	o 1317
0.00/0.04	o 1316
0.00/0.04	o 1315
0.00/0.04	o 1314
0.00/0.04	o 1313
0.00/0.04	o 1312
0.00/0.04	o 1311
0.00/0.04	o 1310
0.00/0.04	o 1309
0.00/0.04	o 1308
0.00/0.04	o 1307
0.00/0.04	o 1306
0.00/0.04	o 1305
0.00/0.04	o 1304
0.00/0.04	o 1303
0.00/0.04	o 1301
0.00/0.04	o 1300
0.00/0.04	o 1299
0.00/0.04	o 1298
0.00/0.04	o 1297
0.00/0.04	o 1296
0.00/0.04	o 1295
0.00/0.05	o 1294
0.00/0.05	o 1293
0.00/0.05	o 1291
0.00/0.05	o 1290
0.00/0.05	o 1289
0.00/0.05	o 1288
0.00/0.05	o 1287
0.00/0.05	o 1286
0.00/0.05	o 1285
0.00/0.05	o 1284
0.04/0.05	o 1283
0.04/0.05	o 1282
0.04/0.05	o 1281
0.04/0.05	o 1280
0.04/0.05	o 1279
0.04/0.05	s SATISFIABLE
0.04/0.05	o 1280 
0.04/0.05	v 010000000010001001001000001111101010010001010000011011010111010111101010010111001011001011100001011101011000011011111001110100010111110000100010010001110000110000011001100001111100101101010101001100011001101110001111111110000111111100100101001110010000110000000100110110100110001111000011011001110110000010000001010101111000111100110001000100111001100101001000010010100110100101101101110110001110001000011111111100110100111010000111001000011101010100011001011011100110110001011000010011101101111110111011010110000010101001000000000100101101010010111011001111110010001110111000001000111001101101011000011001011001101010100011011101000100111011001101100100010010000001010001111111111011000001011101000011001010101111000011011010111110000101001101100101110110000100001101001100100010000001100011001111011101011101111011100011000100001101000000000010111100111100101010110100010000000100111101011011001110101101100011110101101001000101011101100100110010111000110111111001010111011111110110100011111000111001100101110010111000110011000111001001101001111100010111000111010110110100000101010010010101001100100000100000111000111111000001100111000100111101001010001100001100110000101
c [MSE2022] -- end -- [MSE2022]
